
  32    4
  10   10   10   10

   0   0   0   0   0  12 2 3 4 5 6 8 9 14 15 16 30 31 
   5   1   1   1   0   8 27 26 25 24 22 20 17 7 
   9   0   7   4   1  10 29 28 26 25 24 21 20 19 17 10 
   1   0   3   5   4   9 27 26 25 24 23 20 19 18 10 
  10   0   4   2   3   7 23 21 20 18 13 11 10 
   2   2   5   0   6   5 21 20 19 17 12 
   5   4   2   0   3   4 23 21 19 18 
   8   4   4   0   4   4 23 21 20 17 
   7   3   5   5   0   2 22 17 
   6   2   7   7   0   1 22 
   3   2   3   0   6   1 19 
   4   3   0   5   4   1 18 
  10   4   2   4   0   1 17 
  10   8   0   8   4   1 18 
  10   2   0   5   2   1 17 
   2   6   0   3   4   1 17 
   5   3   0   3   5   1 32
   5   4   6   3   0   1 32
   1   0   3   4   5   1 32
   6   0   5   3   4   1 32
  10   7   0   4   5   1 32
   3   6   0   3   7   1 32
   7   0   4   1   3   1 32
   6   7   5   0   4   1 32
   4   3   0   2   6   1 32
   8   0   1   3   4   1 32
   1   0   4   2   4   1 32
   4   4   5   5   0   1 32
   1   2   0   8   3   1 32
   5   9   0   4   3   1 32
   2   2   0   6   2   1 32
   0   0   0   0   0   0 
